11089 10736 1 2 3 4 5 6 7 9 10 12 13 14 16 18 19 20 25 26 30 31 32 33 34 35 36 37 38 39 40 41 42 44 45 46 47 48 49 50 51 52 54 55 58 59 60 61 62 63 64 66 67 68 70 71 72 74 75 76 77 78 79 80 81 82 83 84 85 86 87 88 89 90 91 92 93 94 95 96 97 98 99 100 102 103 105 106 108 109 111 115 117 118 121 122 123 126 127 128 129 131 132 135 136 137 139 140 141 142 143 145 146 147 148 150 151 152 153 154 155 157 158 159 160 161 163 165 166 167 168 169 170 171 172 173 175 176 178 179 180 182 184 185 186 187 188 191 192 193 194 196 197 198 199 201 203 204 206 207 208 209 210 212 214 215 216 217 218 219 220 221 224 225 226 228 229 230 231 233 234 236 237 238 239 241 242 243 244 245 247 248 249 252 254 255 256 257 258 259 262 263 264 265 266 267 270 271 276 277 278 279 280 281 282 283 284 285 286 287 288 289 290 291 292 293 294 296 297 298 299 301 302 303 304 305 306 308 309 310 312 314 315 317 318 319 320 322 323 324 325 327 328 329 330 331 332 334 335 336 337 338 339 340 342 343 344 345 346 347 348 349 352 356 357 358 359 360 361 362 363 365 366 367 368 369 371 373 376 377 378 379 382 385 387 388 389 391 392 393 394 395 396 397 398 399 400 401 402 403 405 406 408 409 410 411 412 413 414 415 416 417 419 420 421 424 425 426 427 428 429 430 431 432 433 434 435 439 440 441 442 443 444 445 446 447 448 450 451 452 453 455 456 457 459 460 461 466 467 469 470 473 474 475 476 477 478 480 482 483 484 485 486 487 488 490 492 493 494 495 496 497 499 